
%FILE DATA:	Soccer Computational Problem for MiniZinc Models	%
%AUTHOR:	Jack Wall	%
%CONTACT:  	116397063@umail.ucc.ie			%
%LAST UPDATE:	03/19/2020, 13:39:23						%
%DESCRIPTION: 	195 games played with 15 games left				%


n=15; %number of teams

%Games to play
games=[|13,3|14,11|9,13|12,4|6,2|3,11|9,14|6,15|11,5|5,12|9,11|14,4|10,6|11,13|2,9|];

%Initial points
iPoints=[37,31,23,35,36,36,23,48,28,48,34,34,42,33,33];

%POSITION CONSTRAINTS
% [|teamID, operator, position|...]
% operators index:
%  1 for =  operator
%  2 for >  operator
%  3 for >= operator
%  4 for <  operator
%  5 for <= operator
positionConstraints=[|10,1,1|8,5,2|11,5,3|13,2,3|];